NAME : pr144.102215.tour
COMMENT : Cost = 0_102215
COMMENT : Found by LKH [Keld Helsgaun] Thu Nov 16 16:24:02 2017
TYPE : TOUR
DIMENSION : 163
TOUR_SECTION
1
2
163
31
32
162
37
38
39
40
21
41
42
15
16
17
18
20
19
8
7
9
10
11
12
13
14
43
44
45
71
72
70
69
68
67
66
65
64
63
62
61
46
47
48
59
60
79
80
81
82
83
84
85
86
110
109
108
107
106
105
104
87
88
103
102
101
100
99
96
95
93
94
97
98
90
89
78
77
76
75
74
73
91
92
116
117
118
119
120
121
122
123
124
125
126
127
128
129
130
115
131
132
133
134
135
136
137
138
139
140
141
142
143
144
111
112
113
114
49
50
51
52
53
54
55
56
57
58
161
33
160
34
159
23
158
22
157
36
156
35
155
24
154
25
153
26
152
27
151
30
150
29
149
6
148
28
147
5
146
4
145
3
-1
EOF
